%nproc=4
# mp2/aug-cc-pvdz

 benzox-bp86.log

0  1
C          -1.44547         0.72542         0.13014
C          -0.32280         1.44093        -0.19331
C           0.98052         0.76955        -0.31394
C           0.98053        -0.76954        -0.31395
C          -0.32279        -1.44093        -0.19331
C          -1.44546        -0.72543         0.13014
H          -2.40578         1.24761         0.27222
H          -0.38084         2.52227        -0.39739
H          -0.38082        -2.52227        -0.39738
H          -2.40577        -1.24763         0.27223
O           1.42976         0.00000         0.80919
H           1.79399        -1.29761        -0.84891
H           1.79398         1.29762        -0.84890

