%nproc=4
# freq b3lyp/svp

 oxepin.log

0  1
C           1.44574        -0.67795         0.14139
C           0.30665        -1.50991        -0.23243
C          -0.98606        -1.16117        -0.11528
C          -0.98603         1.16118        -0.11528
C           0.30668         1.50991        -0.23243
C           1.44575         0.67793         0.14139
H           2.38326        -1.19806         0.36305
H           0.51183        -2.49708        -0.65856
H           0.51188         2.49707        -0.65856
H           2.38328         1.19802         0.36305
O          -1.42244         0.00001         0.49634
H          -1.80353         1.80882        -0.45193
H          -1.80356        -1.80879        -0.45193

