%nproc=2
# freq bp86/SVP

 ts-bp86.log

0  1
C          -1.42090         0.70581         0.16632
C          -0.30645         1.45966        -0.24861
C           0.99622         0.93864        -0.22529
C           0.99622        -0.93864        -0.22530
C          -0.30645        -1.45966        -0.24861
C          -1.42090        -0.70581         0.16632
H          -2.38948         1.21880         0.28786
H          -0.45767         2.45469        -0.70013
H          -0.45767        -2.45469        -0.70014
H          -2.38948        -1.21880         0.28786
O           1.34735        -0.00000         0.74899
H           1.84450        -1.43074        -0.73815
H           1.84450         1.43074        -0.73815

