%nproc=4
# opt=(ts, calcfc, noeigen) b3lyp svp

Title Card Required

0 1
 C                  1.41453800   -0.70484500    0.16172900
 C                  0.30758400   -1.45032500   -0.23898700
 C                 -0.98979000   -0.91277700   -0.23484600
 C                 -0.98999700    0.91248500   -0.23509900
 C                  0.30713800    1.45036000   -0.23898300
 C                  1.41428900    0.70520600    0.16182800
 H                  2.37687700   -1.21275900    0.27469300
 H                  0.44941700   -2.45032300   -0.65984600
 H                  0.44867200    2.45048100   -0.65965500
 H                  2.37644700    1.21343100    0.27490400
 O                 -1.34711400   -0.00008100    0.74999200
 H                 -1.82871000    1.40523700   -0.74219200
 H                 -1.82836600   -1.40605200   -0.74168800

