%nproc=4
# b3lyp/svp opt=modredundant  

Title Card Required

0 1
 C                  0.08459759    0.09850516   -0.21830421
 C                  0.03519448   -0.15879027    1.11543484
 C                  1.23177767    0.22645731    1.99339599
 C                  2.32887539    0.95442211    1.44767070
 C                  2.40223648    1.11706049   -0.07870342
 C                  1.33486487    0.76513147   -0.84805937
 H                 -0.74642456   -0.16271565   -0.83964620
 H                 -0.82835975   -0.61993256    1.54731664
 H                  3.29015757    1.50121812   -0.53578004
 H                  1.36206049    0.94532869   -1.90242618
 O                  2.58045842   -0.47977671    1.94926278
 H                  2.73518738    1.82053028    1.92690677
 H                  0.87562588    0.47003855    2.97254056

B 3 4 S 10 0.1

