%nproc=2
# freq hf/3-21g

 oxepin-hf-321g.log

0  1
C          -0.31892        -1.40583         0.66339
C          -0.31892        -0.21226         1.51676
C           0.20453         0.95143         1.19756
C           0.20453         0.95143        -1.19756
C          -0.31892        -0.21226        -1.51676
C          -0.31892        -1.40583        -0.66339
H          -0.35537        -2.34709         1.17928
H          -0.77592        -0.30089         2.48370
H          -0.77592        -0.30089        -2.48370
H          -0.35537        -2.34709        -1.17928
O           0.88708         1.21152         0.00000
H           0.18285         1.80191        -1.84609
H           0.18285         1.80191         1.84609

