%nproc=2
# freq hf/3-21g

 ts-hf-321g.log

0  1
C          -0.33764        -1.36333         0.70181
C          -0.33764        -0.20726         1.43686
C           0.10211         1.00442         0.91039
C           0.10211         1.00442        -0.91039
C          -0.33764        -0.20726        -1.43686
C          -0.33764        -1.36333        -0.70181
H          -0.56538        -2.28825         1.19548
H          -0.76183        -0.20548         2.42267
H          -0.76183        -0.20548        -2.42267
H          -0.56538        -2.28825        -1.19548
O           1.20682         0.98617         0.00000
H          -0.06107         1.94608        -1.38890
H          -0.06107         1.94608         1.38890

