%nproc=1
%mem=4GB
%Chk=gradients-qmjob.chk
#P force hf/sto-3g  Charge NoSymm Prop=(Read,Field) punch=derivatives Guess=Read

Generated by Zonkey

0 1
O 1.80654005795 -0.139183119898 0.01331115193
H 0.988034650894 0.403569482273 -0.169186192798
H 1.63293101852 0.433762290056 0.805031018612

-0.499379993613 0.857397634431 -0.0262335901013 -0.834
-0.10482893798 0.968641414984 -0.840745719626 0.417
-0.975936135336 0.00997329899726 -0.16471750853 0.417

-0.499379993613 0.857397634431 -0.0262335901013
-0.10482893798 0.968641414984 -0.840745719626
-0.975936135336 0.00997329899726 -0.16471750853

