%nproc=1
%mem=4GB
%Chk=gradients-qmjob.chk
#P force hf/6-31g  Charge NoSymm Prop=(Read,Field) punch=derivatives Guess=Read

Generated by Zonkey

0 1
O 1.68595788869 -0.100301514854 1.29541897767e-05
H 1.62895880391 0.423630465753 -0.790521248007
H 1.62905832489 0.432794480452 0.784403104513

-1.63924191279 0.0889202203674 -3.30271630085e-05 -0.834
-0.681371018575 0.0949222529378 0.000142335523646 0.417
-1.86736139596 -0.840966178218 0.0039961918032 0.417

-1.63924191279 0.0889202203674 -3.30271630085e-05
-0.681371018575 0.0949222529378 0.000142335523646
-1.86736139596 -0.840966178218 0.0039961918032

